n = 40;
m = 76;
w = [3,5,4,9,7,9,5,9,10,10,5,10,6,8,8,9,2,7,5,1,4,8,2,10,3,6,7,9,5,6,9,6,10,4,6,3,7,6,3,4,7,3,9,3,8,4,10,10,10,10,3,7,2,6,10,5,10,4,2,8,4,3,4,3,3,4,2,3,7,5,7,7,9,6,10,6];
edges = array2d(1..m, 1..2, [1,28,2,27,3,5,3,9,3,23,4,19,4,21,4,37,4,40,5,8,5,14,5,23,5,39,6,7,6,18,6,22,6,24,6,39,7,10,7,21,7,40,8,9,8,12,8,37,9,11,10,14,10,22,10,25,10,35,10,38,10,40,11,20,11,30,11,33,12,21,12,27,13,21,13,30,14,22,14,27,14,28,14,37,15,26,15,37,16,22,17,22,17,24,17,27,17,34,17,39,18,27,19,20,19,27,19,30,19,36,19,39,20,26,20,29,21,25,22,34,22,35,22,39,23,39,26,28,26,29,26,37,27,34,27,40,28,32,28,34,29,33,30,34,32,37,32,40,34,37,36,39]);
